c File: instances/34_0.15_3.col
c
c Description: Random graph of size 34 vertices and P(0.15000000000000002) of edges between any two vertices.
p col 34 561
e 1 5
e 1 8
e 1 10
e 1 17
e 1 21
e 1 26
e 1 30
e 2 3
e 2 8
e 2 18
e 3 5
e 3 10
e 3 16
e 3 27
e 3 34
e 4 18
e 4 19
e 4 27
e 4 31
e 4 34
e 5 17
e 5 19
e 5 28
e 5 30
e 6 9
e 6 11
e 6 13
e 6 14
e 6 21
e 7 10
e 7 11
e 7 14
e 7 15
e 7 28
e 7 30
e 7 31
e 7 32
e 8 12
e 8 16
e 8 34
e 9 13
e 9 14
e 9 31
e 10 11
e 10 28
e 10 34
e 11 26
e 12 27
e 12 29
e 13 17
e 13 26
e 13 30
e 13 33
e 14 16
e 14 21
e 15 16
e 15 17
e 15 28
e 16 17
e 16 19
e 17 23
e 18 22
e 18 24
e 18 25
e 18 28
e 18 31
e 18 32
e 19 22
e 19 26
e 21 22
e 21 27
e 21 32
e 22 30
e 23 30
e 24 29
e 25 32
e 25 33
e 26 28
e 28 31
e 29 32
e 29 34
e 31 32